Maximize

29.5 b0 + 28.0 b1 + 36.0 b2 + 6 b3 + 18.5 b4.v0 + 18.5 b4.v1 + 7 b5.v0 + 7 b5.v1 + 23.5 b6 + 17.5 b7 + 29.0 b8.v0 + 33.0 b8.v1 + 7 b9 + 36.0 b10 + 18.5 b11.v0 + 18.5 b11.v1 + 18.5 b11.v2 + 10 b12 + 172.0 b13 + 6 b14 + 10 b15 + 58.5 b16 + 98.0 b17 + 6 b18 + 6 b19 + 19.5 b20.v0 + 15.5 b20.v1 + 19.5 b20.v2 + 33.0 b21 + 18.5 b22 + 22.5 b23 + 110.0 b24 + 24.5 b25 + 6 b26.v0 + 6 b26.v1 + 22.5 b27 + 179.0 b28 + 49 b29.v0 + 49 b29.v1 + 7 b30 + 108.0 b31.v0 + 108.0 b31.v1 + 39 b32.v0 + 39 b32.v1 + 23 b33.v0 + 21 b33.v1 + 31.0 b34.v0 + 31.0 b34.v1 + 105.5 b35 + 37.0 b36 + 32.0 b37.v0 + 36.0 b37.v1 + 32.0 b37.v2 + 32.0 b37.v3 + 36.0 b37.v4 + 32.0 b37.v5 + 36.0 b37.v6 + 32.0 b38 + 22.5 b39 + 7 b40 + 33.0 b41 + 38.0 b42 + 49.5 b43 + 37.0 b44 + 33.0 b45 + 36.0 b46.v0 + 36.0 b46.v1 + 18.5 b47 + 6 b48 + 37.0 b49 + 37.0 b50 + 6 b51.v0 + 6 b51.v1 + 171.0 b52 + 45.0 b53 + 143.0 b54.v0 + 143.0 b54.v1 + 31 b55 + 12 b56.v0 + 10 b56.v1 + 28.5 b57 + 240.5 b58.v0 + 240.5 b58.v1 + 6 b59 + 32.0 b60 + 22.5 b61 + 3 b62 + 19.5 b63 + 56.5 b64 + 23.5 b65 + 172.5 b66 + 70.5 b67 + 1060.0 b68 + 36.0 b69 + 32.0 b70 + 19.5 b71 + 23.5 b72 + 18.5 b73.v0 + 18.5 b73.v1 + 18.5 b73.v2 + 7 b74 + 24.5 b75 + 20.5 b76 + 18.5 b77.v0 + 18.5 b77.v1 + 10 b78 + 41.0 b79 + 23.5 b80 + 245.5 b81 + 62.0 b82 + 33.0 b83 + 24.5 b84.v0 + 24.5 b84.v1 + 35.0 b85 + 181.5 b86.v0 + 179.5 b86.v1 + 43.5 b87.v0 + 43.5 b87.v1 + 10 b88 + 19 b89 + 13.5 b90.v0 + 13.5 b90.v1 + 13.5 b91 + 12.5 x29_0.m + 12.5 x29_1.m + 12.5 x29_2.m + 12.5 x29_3.m + 12.5 x31_0.m + 12.5 x31_1.m + 12.5 x32_0.m + 12.5 x32_1.m + 12.5 x32_2.m + 12.5 x33_0.m + 12.5 x33_1.m + 12.5 x52_0.m + 12.5 x52_1.m + 12.5 x52_2.m + 12.5 x52_3.m + 12.5 x52_4.m + 12.5 x52_5.m + 12.5 x52_6.m + 12.5 x53_0.m + 12.5 x54_0.m + 12.5 x54_1.m + 12.5 x54_2.m + 12.5 x54_3.m + 12.5 x55_0.m + 12.5 x55_1.m + 12.5 x56_0.m + 12.5 x57_0.m + 12.5 x87_0.m + 12.5 x89_0.m + 12.5 dr29_0.m + 12.5 dr29_1.m + 12.5 dr29_2.m + 12.5 dr29_3.m + 12.5 dr29_4.m + 12.5 dr29_5.m + 12.5 dr29_6.m + 12.5 dr31_0.m + 12.5 dr31_1.m + 12.5 dr31_2.m + 12.5 dr31_3.m + 12.5 dr31_4.m + 12.5 dr31_5.m + 12.5 dr31_6.m + 12.5 dr32_0.m + 12.5 dr32_1.m + 12.5 dr32_2.m + 12.5 dr32_3.m + 12.5 dr32_4.m + 12.5 dr32_5.m + 12.5 dr33_0.m + 12.5 dr33_1.m + 12.5 dr33_2.m + 12.5 dr51_0.m + 12.5 dr52_0.m + 12.5 dr52_1.m + 12.5 dr52_2.m + 12.5 dr52_3.m + 12.5 dr52_4.m + 12.5 dr52_5.m + 12.5 dr52_6.m + 12.5 dr52_7.m + 12.5 dr52_8.m + 12.5 dr52_9.m + 12.5 dr52_10.m + 12.5 dr52_11.m + 12.5 dr52_12.m + 12.5 dr52_13.m + 12.5 dr52_14.m + 12.5 dr52_15.m + 12.5 dr52_16.m + 12.5 dr52_17.m + 12.5 dr52_18.m + 12.5 dr52_19.m + 12.5 dr52_20.m + 12.5 dr53_0.m + 12.5 dr53_1.m + 12.5 dr54_0.m + 12.5 dr54_1.m + 12.5 dr54_2.m + 12.5 dr54_3.m + 12.5 dr54_4.m + 12.5 dr54_5.m + 12.5 dr54_6.m + 12.5 dr54_7.m + 12.5 dr54_8.m + 12.5 dr55_0.m + 12.5 dr55_1.m + 12.5 dr55_2.m + 12.5 dr55_3.m + 12.5 dr55_4.m + 12.5 dr55_5.m + 12.5 dr55_6.m + 12.5 dr56_0.m + 12.5 dr57_0.m + 12.5 dr87_0.m + 12.5 dr87_1.m + 12.5 dr87_2.m + 12.5 dr88_0.m + 12.5 dr89_0.m + 12.5 dr89_1.m + 12.5 dr89_2.m


Subject to

\ === tcfg constraints ===
dSta_0 = 1
b0 - dSta_0 = 0
b0 - d0_1 = 0
b1 - d0_1 = 0
b1 - d1_2 = 0
b2 - d1_2 = 0
b2 - d2_4 - d2_3 = 0
b3 - d2_3 = 0
b3 - d3_91 - d3_4 = 0
b4 - d2_4 - d3_4 = 0
b4 - d4_5 = 0
b5 - d4_5 - d91_5 = 0
b5 - d5_6 = 0
b6 - d5_6 = 0
b6 - d6_8 - d6_7 = 0
b7 - d6_7 = 0
b7 - d7_8 = 0
b8 - d6_8 - d7_8 = 0
b8 - d8_11 - d8_9 = 0
b9 - d8_9 = 0
b9 - d9_11 - d9_10 = 0
b10 - d9_10 = 0
b10 - d10_13 - d10_11 = 0
b11 - d8_11 - d9_11 - d10_11 = 0
b11 - d11_12 = 0
b12 - d11_12 = 0
b13 - d10_13 = 0
b13 - d13_16 - d13_14 = 0
b14 - d13_14 = 0
b14 - d14_15 = 0
b15 - d14_15 = 0
b16 - d13_16 = 0
b16 - d16_17 = 0
b17 - d16_17 = 0
b17 - d17_84 - d17_18 = 0
b18 - d17_18 = 0
b18 - d18_84 - d18_19 = 0
b19 - d18_19 = 0
b19 - d19_20 = 0
b20 - d90_20 - d88_20 - d19_20 = 0
b20 - d20_21 = 0
b21 - d20_21 = 0
b21 - d21_24 - d21_22 = 0
b22 - d21_22 = 0
b22 - d22_23 = 0
b23 - d22_23 = 0
b24 - d21_24 = 0
b24 - d24_26 - d24_25 = 0
b25 - d24_25 = 0
b25 - d25_28 - d25_26 = 0
b26 - d24_26 - d25_26 = 0
b26 - d26_27 = 0
b27 - d26_27 = 0
b28 - d25_28 = 0
b28 - d28_34 - d28_29 = 0
b29 - d28_29 - d33_29 = 0
b29 - d29_33 - d29_30 = 0
b30 - d29_30 = 0
b30 - d30_32 - d30_31 = 0
b31 - d31_31 - d30_31 = 0
b31 - d31_31 - d31_32 = 0
b32 - d31_32 - d30_32 = 0
b32 - d32_33 = 0
b33 - d29_33 - d32_33 = 0
b33 - d33_29 - d33_34 = 0
b34 - d28_34 - d33_34 = 0
b34 - d34_35 = 0
b35 - d34_35 = 0
b35 - d35_40 - d35_36 = 0
b36 - d35_36 = 0
b36 - d36_37 = 0
b37 - d82_37 - d79_37 - d49_37 - d36_37 - d41_37 - d43_37 - d81_37 = 0
b37 - d37_38 = 0
b38 - d37_38 = 0
b38 - d38_39 = 0
b39 - d38_39 = 0
b40 - d35_40 = 0
b40 - d40_42 - d40_41 = 0
b41 - d40_41 = 0
b41 - d41_37 = 0
b42 - d40_42 = 0
b42 - d42_44 - d42_43 = 0
b43 - d42_43 = 0
b43 - d43_37 = 0
b44 - d42_44 = 0
b44 - d44_83 - d44_45 = 0
b45 - d44_45 = 0
b45 - d45_46 = 0
b46 - d83_46 - d45_46 = 0
b46 - d46_80 - d46_47 = 0
b47 - d46_47 = 0
b47 - d47_50 - d47_48 = 0
b48 - d47_48 = 0
b48 - d48_49 = 0
b49 - d48_49 = 0
b49 - d49_37 = 0
b50 - d47_50 = 0
b50 - d50_58 - d50_51 = 0
b51 - d50_51 - d57_51 = 0
b51 - d51_52 = 0
b52 - d51_52 = 0
b52 - d52_54 - d52_53 = 0
b53 - d52_53 = 0
b53 - d53_54 = 0
b54 - d52_54 - d53_54 = 0
b54 - d54_56 - d54_55 = 0
b55 - d54_55 = 0
b55 - d55_56 = 0
b56 - d54_56 - d55_56 = 0
b56 - d56_57 = 0
b57 - d56_57 = 0
b57 - d57_51 - d57_58 = 0
b58 - d50_58 - d57_58 = 0
b58 - d58_79 - d58_59 = 0
b59 - d58_59 = 0
b59 - d59_60 = 0
b60 - d59_60 = 0
b60 - d60_61 = 0
b61 - d60_61 = 0
b61 - d61_62 = 0
b62 - d61_62 = 0
b62 - d62_63 = 0
b63 - d62_63 = 0
b63 - d63_64 = 0
b64 - d63_64 = 0
b64 - d64_73 - d64_65 = 0
b65 - d64_65 = 0
b65 - d65_73 - d65_66 = 0
b66 - d65_66 = 0
b66 - d66_73 - d66_67 = 0
b67 - d66_67 = 0
b67 - d67_68 = 0
b68 - d67_68 = 0
b68 - d68_69 = 0
b69 - d68_69 = 0
b69 - d69_70 = 0
b70 - d69_70 = 0
b70 - d70_71 = 0
b71 - d70_71 = 0
b71 - d71_72 = 0
b72 - d71_72 = 0
b73 - d64_73 - d65_73 - d66_73 = 0
b73 - d73_74 = 0
b74 - d73_74 = 0
b74 - d74_75 = 0
b75 - d74_75 = 0
b75 - d75_77 - d75_76 = 0
b76 - d75_76 = 0
b76 - d76_77 = 0
b77 - d75_77 - d76_77 = 0
b77 - d77_78 = 0
b78 - d77_78 = 0
b79 - d58_79 = 0
b79 - d79_37 = 0
b80 - d46_80 = 0
b80 - d80_82 - d80_81 = 0
b81 - d80_81 = 0
b81 - d81_37 = 0
b82 - d80_82 = 0
b82 - d82_37 = 0
b83 - d44_83 = 0
b83 - d83_46 = 0
b84 - d17_84 - d18_84 = 0
b84 - d84_86 - d84_85 = 0
b85 - d84_85 = 0
b85 - d85_86 = 0
b86 - d84_86 - d85_86 = 0
b86 - d86_90 - d86_87 = 0
b87 - d86_87 - d89_87 = 0
b87 - d87_89 - d87_88 = 0
b88 - d87_88 = 0
b88 - d88_20 = 0
b89 - d87_89 = 0
b89 - d89_87 - d89_90 = 0
b90 - d86_90 - d89_90 = 0
b90 - d90_20 = 0
b91 - d3_91 = 0
b91 - d91_5 = 0


\ === header constraints ===
b29 - 61 d28_29 <= 0
b31 - 72 d30_31 <= 0
b51 - 64 d50_51 <= 0
b87 - 47 d86_87 <= 0


\ === context constraints ===
b4 - b4.v0 - b4.v1 = 0
b4.v0 - d2_4 = 0
b4.v1 - d3_4 = 0
b5 - b5.v0 - b5.v1 = 0
b5.v0 - d4_5 = 0
b5.v1 - d91_5 = 0
b8 - b8.v0 - b8.v1 = 0
b8.v0 - d6_8 = 0
b8.v1 - d7_8 = 0
b11 - b11.v0 - b11.v1 - b11.v2 = 0
b11.v0 - d8_11 = 0
b11.v1 - d9_11 = 0
b11.v2 - d10_11 = 0
b20 - b20.v0 - b20.v1 - b20.v2 = 0
b20.v0 - d90_20 = 0
b20.v1 - d88_20 = 0
b20.v2 - d19_20 = 0
b26 - b26.v0 - b26.v1 = 0
b26.v0 - d24_26 = 0
b26.v1 - d25_26 = 0
b29 - b29.v0 - b29.v1 = 0
b29.v0 - d28_29 = 0
b29.v1 - d33_29 = 0
b31 - b31.v0 - b31.v1 = 0
b31.v0 - d31_31 = 0
b31.v1 - d30_31 = 0
b32 - b32.v0 - b32.v1 = 0
b32.v0 - d31_32 = 0
b32.v1 - d30_32 = 0
b33 - b33.v0 - b33.v1 = 0
b33.v0 - d29_33 = 0
b33.v1 - d32_33 = 0
b34 - b34.v0 - b34.v1 = 0
b34.v0 - d28_34 = 0
b34.v1 - d33_34 = 0
b37 - b37.v0 - b37.v1 - b37.v2 - b37.v3 - b37.v4 - b37.v5 - b37.v6 = 0
b37.v0 - d82_37 = 0
b37.v1 - d79_37 = 0
b37.v2 - d49_37 = 0
b37.v3 - d36_37 = 0
b37.v4 - d41_37 = 0
b37.v5 - d43_37 = 0
b37.v6 - d81_37 = 0
b46 - b46.v0 - b46.v1 = 0
b46.v0 - d83_46 = 0
b46.v1 - d45_46 = 0
b51 - b51.v0 - b51.v1 = 0
b51.v0 - d50_51 = 0
b51.v1 - d57_51 = 0
b54 - b54.v0 - b54.v1 = 0
b54.v0 - d52_54 = 0
b54.v1 - d53_54 = 0
b56 - b56.v0 - b56.v1 = 0
b56.v0 - d54_56 = 0
b56.v1 - d55_56 = 0
b58 - b58.v0 - b58.v1 = 0
b58.v0 - d50_58 = 0
b58.v1 - d57_58 = 0
b73 - b73.v0 - b73.v1 - b73.v2 = 0
b73.v0 - d64_73 = 0
b73.v1 - d65_73 = 0
b73.v2 - d66_73 = 0
b77 - b77.v0 - b77.v1 = 0
b77.v0 - d75_77 = 0
b77.v1 - d76_77 = 0
b84 - b84.v0 - b84.v1 = 0
b84.v0 - d17_84 = 0
b84.v1 - d18_84 = 0
b86 - b86.v0 - b86.v1 = 0
b86.v0 - d84_86 = 0
b86.v1 - d85_86 = 0
b87 - b87.v0 - b87.v1 = 0
b87.v0 - d86_87 = 0
b87.v1 - d89_87 = 0
b90 - b90.v0 - b90.v1 = 0
b90.v0 - d86_90 = 0
b90.v1 - d89_90 = 0


\ === inst cache constraints ===
b29 - x29_0.h - x29_0.m = 0
x29_0.m <= 1
b29 - x29_1.h - x29_1.m = 0
x29_1.m <= 1
b29 - x29_2.h - x29_2.m = 0
x29_2.m <= 1
b29 - x29_3.h - x29_3.m = 0
x29_3.m <= 1
b31 - x31_0.h - x31_0.m = 0
x31_0.m <= 1
b31 - x31_1.h - x31_1.m = 0
x31_1.m <= 1
b32 - x32_0.h - x32_0.m = 0
x32_0.m <= 1
b32 - x32_1.h - x32_1.m = 0
x32_1.m <= 1
b32 - x32_2.h - x32_2.m = 0
x32_2.m <= 1
b33 - x33_0.h - x33_0.m = 0
x33_0.m <= 1
b33 - x33_1.h - x33_1.m = 0
x33_1.m <= 1
b52 - x52_0.h - x52_0.m = 0
x52_0.m <= 1
b52 - x52_1.h - x52_1.m = 0
x52_1.m <= 1
b52 - x52_2.h - x52_2.m = 0
x52_2.m <= 1
b52 - x52_3.h - x52_3.m = 0
x52_3.m <= 1
b52 - x52_4.h - x52_4.m = 0
x52_4.m <= 1
b52 - x52_5.h - x52_5.m = 0
x52_5.m <= 1
b52 - x52_6.h - x52_6.m = 0
x52_6.m <= 1
b53 - x53_0.h - x53_0.m = 0
x53_0.m <= 1
b54 - x54_0.h - x54_0.m = 0
x54_0.m <= 1
b54 - x54_1.h - x54_1.m = 0
x54_1.m <= 1
b54 - x54_2.h - x54_2.m = 0
x54_2.m <= 1
b54 - x54_3.h - x54_3.m = 0
x54_3.m <= 1
b55 - x55_0.h - x55_0.m = 0
x55_0.m <= 1
b55 - x55_1.h - x55_1.m = 0
x55_1.m <= 1
b56 - x56_0.h - x56_0.m = 0
x56_0.m <= 1
b57 - x57_0.h - x57_0.m = 0
x57_0.m <= 1
b87 - x87_0.h - x87_0.m = 0
x87_0.m <= 1
b89 - x89_0.h - x89_0.m = 0
x89_0.m <= 1


\ === data cache constraints ===
b29 - dr29_0.h - dr29_0.m = 0
dr29_0.m <= 1
b29 - dr29_1.h - dr29_1.m = 0
dr29_1.m <= 1
b29 - dr29_2.h - dr29_2.m = 0
dr29_2.m <= 1
b29 - dr29_3.h - dr29_3.m = 0
dr29_3.m <= 1
b29 - dr29_4.h - dr29_4.m = 0
dr29_4.m <= 1
b29 - dr29_5.h - dr29_5.m = 0
dr29_5.m <= 1
b29 - dr29_6.h - dr29_6.m = 0
dr29_6.m <= 1
b31 - dr31_0.h - dr31_0.m = 0
dr31_0.m <= 1
b31 - dr31_1.h - dr31_1.m = 0
dr31_1.m <= 1
b31 - dr31_2.h - dr31_2.m = 0
dr31_2.m <= 1
b31 - dr31_3.h - dr31_3.m = 0
dr31_3.m <= 1
b31 - dr31_4.h - dr31_4.m = 0
dr31_4.m <= 1
b31 - dr31_5.h - dr31_5.m = 0
dr31_5.m <= 1
b31 - dr31_6.h - dr31_6.m = 0
dr31_6.m <= 1
b32 - dr32_0.h - dr32_0.m = 0
dr32_0.m <= 1
b32 - dr32_1.h - dr32_1.m = 0
dr32_1.m <= 1
b32 - dr32_2.h - dr32_2.m = 0
dr32_2.m <= 1
b32 - dr32_3.h - dr32_3.m = 0
dr32_3.m <= 1
b32 - dr32_4.h - dr32_4.m = 0
dr32_4.m <= 1
b32 - dr32_5.h - dr32_5.m = 0
dr32_5.m <= 1
b33 - dr33_0.h - dr33_0.m = 0
dr33_0.m <= 1
b33 - dr33_1.h - dr33_1.m = 0
dr33_1.m <= 1
b33 - dr33_2.h - dr33_2.m = 0
dr33_2.m <= 1
b51 - dr51_0.h - dr51_0.m = 0
dr51_0.m <= 1
b52 - dr52_0.h - dr52_0.m = 0
dr52_0.m <= 1
b52 - dr52_1.h - dr52_1.m = 0
dr52_1.m <= 1
b52 - dr52_2.h - dr52_2.m = 0
dr52_2.m <= 1
b52 - dr52_3.h - dr52_3.m = 0
dr52_3.m <= 1
b52 - dr52_4.h - dr52_4.m = 0
dr52_4.m <= 1
b52 - dr52_5.h - dr52_5.m = 0
dr52_5.m <= 1
b52 - dr52_6.h - dr52_6.m = 0
dr52_6.m <= 1
b52 - dr52_7.h - dr52_7.m = 0
dr52_7.m <= 1
b52 - dr52_8.h - dr52_8.m = 0
dr52_8.m <= 1
b52 - dr52_9.h - dr52_9.m = 0
dr52_9.m <= 1
b52 - dr52_10.h - dr52_10.m = 0
dr52_10.m <= 1
b52 - dr52_11.h - dr52_11.m = 0
dr52_11.m <= 1
b52 - dr52_12.h - dr52_12.m = 0
dr52_12.m <= 1
b52 - dr52_13.h - dr52_13.m = 0
dr52_13.m <= 1
b52 - dr52_14.h - dr52_14.m = 0
dr52_14.m <= 1
b52 - dr52_15.h - dr52_15.m = 0
dr52_15.m <= 1
b52 - dr52_16.h - dr52_16.m = 0
dr52_16.m <= 1
b52 - dr52_17.h - dr52_17.m = 0
dr52_17.m <= 1
b52 - dr52_18.h - dr52_18.m = 0
dr52_18.m <= 1
b52 - dr52_19.h - dr52_19.m = 0
dr52_19.m <= 1
b52 - dr52_20.h - dr52_20.m = 0
dr52_20.m <= 1
b53 - dr53_0.h - dr53_0.m = 0
dr53_0.m <= 1
b53 - dr53_1.h - dr53_1.m = 0
dr53_1.m <= 1
b54 - dr54_0.h - dr54_0.m = 0
dr54_0.m <= 1
b54 - dr54_1.h - dr54_1.m = 0
dr54_1.m <= 1
b54 - dr54_2.h - dr54_2.m = 0
dr54_2.m <= 1
b54 - dr54_3.h - dr54_3.m = 0
dr54_3.m <= 1
b54 - dr54_4.h - dr54_4.m = 0
dr54_4.m <= 1
b54 - dr54_5.h - dr54_5.m = 0
dr54_5.m <= 1
b54 - dr54_6.h - dr54_6.m = 0
dr54_6.m <= 1
b54 - dr54_7.h - dr54_7.m = 0
dr54_7.m <= 1
b54 - dr54_8.h - dr54_8.m = 0
dr54_8.m <= 1
b55 - dr55_0.h - dr55_0.m = 0
dr55_0.m <= 1
b55 - dr55_1.h - dr55_1.m = 0
dr55_1.m <= 1
b55 - dr55_2.h - dr55_2.m = 0
dr55_2.m <= 1
b55 - dr55_3.h - dr55_3.m = 0
dr55_3.m <= 1
b55 - dr55_4.h - dr55_4.m = 0
dr55_4.m <= 1
b55 - dr55_5.h - dr55_5.m = 0
dr55_5.m <= 1
b55 - dr55_6.h - dr55_6.m = 0
dr55_6.m <= 1
b56 - dr56_0.h - dr56_0.m = 0
dr56_0.m <= 1
b57 - dr57_0.h - dr57_0.m = 0
dr57_0.m <= 1
b87 - dr87_0.h - dr87_0.m = 0
dr87_0.m <= 1
b87 - dr87_1.h - dr87_1.m = 0
dr87_1.m <= 1
b87 - dr87_2.h - dr87_2.m = 0
dr87_2.m <= 1
b88 - dr88_0.h - dr88_0.m = 0
dr88_0.m <= 1
b89 - dr89_0.h - dr89_0.m = 0
dr89_0.m <= 1
b89 - dr89_1.h - dr89_1.m = 0
dr89_1.m <= 1
b89 - dr89_2.h - dr89_2.m = 0
dr89_2.m <= 1


\ === infeasible path constraints ===
x0 <= 1
x1 <= 1
x2 <= 1
x3 <= 1
x4 <= 1
x5 <= 1
x6 <= 1
x0 + x1 + x2 + x3 + x4 + x5 + x6 <= 6
d34_35 - 99999 x0 <= 0
d35_40 - 99999 x1 <= 0
d40_42 - 99999 x2 <= 0
d42_44 - 99999 x3 <= 0
d44_45 - 99999 x4 <= 0
d45_46 - 99999 x5 <= 0
d46_47 - 99999 x6 <= 0


x7 <= 1
x8 <= 1
x9 <= 1
x10 <= 1
x11 <= 1
x12 <= 1
x13 <= 1
x7 + x8 + x9 + x10 + x11 + x12 + x13 <= 6
d34_35 - 99999 x7 <= 0
d35_40 - 99999 x8 <= 0
d40_42 - 99999 x9 <= 0
d42_44 - 99999 x10 <= 0
d44_83 - 99999 x11 <= 0
d83_46 - 99999 x12 <= 0
d46_47 - 99999 x13 <= 0


Generals
x7
x8
x9
x10
x11
x12
x13
x0
x1
x2
x3
x4
x5
x6


b0
b1
b2
b3
b4
b4.v0
b4.v1
b5
b5.v0
b5.v1
b6
b7
b8
b8.v0
b8.v1
b9
b10
b11
b11.v0
b11.v1
b11.v2
b12
b13
b14
b15
b16
b17
b18
b19
b20
b20.v0
b20.v1
b20.v2
b21
b22
b23
b24
b25
b26
b26.v0
b26.v1
b27
b28
b29
b29.v0
b29.v1
b30
b31
b31.v0
b31.v1
b32
b32.v0
b32.v1
b33
b33.v0
b33.v1
b34
b34.v0
b34.v1
b35
b36
b37
b37.v0
b37.v1
b37.v2
b37.v3
b37.v4
b37.v5
b37.v6
b38
b39
b40
b41
b42
b43
b44
b45
b46
b46.v0
b46.v1
b47
b48
b49
b50
b51
b51.v0
b51.v1
b52
b53
b54
b54.v0
b54.v1
b55
b56
b56.v0
b56.v1
b57
b58
b58.v0
b58.v1
b59
b60
b61
b62
b63
b64
b65
b66
b67
b68
b69
b70
b71
b72
b73
b73.v0
b73.v1
b73.v2
b74
b75
b76
b77
b77.v0
b77.v1
b78
b79
b80
b81
b82
b83
b84
b84.v0
b84.v1
b85
b86
b86.v0
b86.v1
b87
b87.v0
b87.v1
b88
b89
b90
b90.v0
b90.v1
b91
d0_1
d1_2
d2_3
d2_4
d3_4
d3_91
d4_5
d5_6
d6_7
d6_8
d7_8
d8_9
d8_11
d9_10
d9_11
d10_11
d10_13
d11_12
d13_14
d13_16
d14_15
d16_17
d17_18
d17_84
d18_19
d18_84
d19_20
d20_21
d21_22
d21_24
d22_23
d24_25
d24_26
d25_26
d25_28
d26_27
d28_29
d28_34
d29_30
d29_33
d30_31
d30_32
d31_31
d31_32
d32_33
d33_29
d33_34
d34_35
d35_36
d35_40
d36_37
d37_38
d38_39
d40_41
d40_42
d41_37
d42_43
d42_44
d43_37
d44_45
d44_83
d45_46
d46_47
d46_80
d47_48
d47_50
d48_49
d49_37
d50_51
d50_58
d51_52
d52_53
d52_54
d53_54
d54_55
d54_56
d55_56
d56_57
d57_51
d57_58
d58_59
d58_79
d59_60
d60_61
d61_62
d62_63
d63_64
d64_65
d64_73
d65_66
d65_73
d66_67
d66_73
d67_68
d68_69
d69_70
d70_71
d71_72
d73_74
d74_75
d75_76
d75_77
d76_77
d77_78
d79_37
d80_81
d80_82
d81_37
d82_37
d83_46
d84_85
d84_86
d85_86
d86_87
d86_90
d87_88
d87_89
d88_20
d89_87
d89_90
d90_20
d91_5
dSta_0
dr29_0.h
dr29_0.m
dr29_1.h
dr29_1.m
dr29_2.h
dr29_2.m
dr29_3.h
dr29_3.m
dr29_4.h
dr29_4.m
dr29_5.h
dr29_5.m
dr29_6.h
dr29_6.m
dr31_0.h
dr31_0.m
dr31_1.h
dr31_1.m
dr31_2.h
dr31_2.m
dr31_3.h
dr31_3.m
dr31_4.h
dr31_4.m
dr31_5.h
dr31_5.m
dr31_6.h
dr31_6.m
dr32_0.h
dr32_0.m
dr32_1.h
dr32_1.m
dr32_2.h
dr32_2.m
dr32_3.h
dr32_3.m
dr32_4.h
dr32_4.m
dr32_5.h
dr32_5.m
dr33_0.h
dr33_0.m
dr33_1.h
dr33_1.m
dr33_2.h
dr33_2.m
dr51_0.h
dr51_0.m
dr52_0.h
dr52_0.m
dr52_1.h
dr52_1.m
dr52_2.h
dr52_2.m
dr52_3.h
dr52_3.m
dr52_4.h
dr52_4.m
dr52_5.h
dr52_5.m
dr52_6.h
dr52_6.m
dr52_7.h
dr52_7.m
dr52_8.h
dr52_8.m
dr52_9.h
dr52_9.m
dr52_10.h
dr52_10.m
dr52_11.h
dr52_11.m
dr52_12.h
dr52_12.m
dr52_13.h
dr52_13.m
dr52_14.h
dr52_14.m
dr52_15.h
dr52_15.m
dr52_16.h
dr52_16.m
dr52_17.h
dr52_17.m
dr52_18.h
dr52_18.m
dr52_19.h
dr52_19.m
dr52_20.h
dr52_20.m
dr53_0.h
dr53_0.m
dr53_1.h
dr53_1.m
dr54_0.h
dr54_0.m
dr54_1.h
dr54_1.m
dr54_2.h
dr54_2.m
dr54_3.h
dr54_3.m
dr54_4.h
dr54_4.m
dr54_5.h
dr54_5.m
dr54_6.h
dr54_6.m
dr54_7.h
dr54_7.m
dr54_8.h
dr54_8.m
dr55_0.h
dr55_0.m
dr55_1.h
dr55_1.m
dr55_2.h
dr55_2.m
dr55_3.h
dr55_3.m
dr55_4.h
dr55_4.m
dr55_5.h
dr55_5.m
dr55_6.h
dr55_6.m
dr56_0.h
dr56_0.m
dr57_0.h
dr57_0.m
dr87_0.h
dr87_0.m
dr87_1.h
dr87_1.m
dr87_2.h
dr87_2.m
dr88_0.h
dr88_0.m
dr89_0.h
dr89_0.m
dr89_1.h
dr89_1.m
dr89_2.h
dr89_2.m
x29_0.h
x29_0.m
x29_1.h
x29_1.m
x29_2.h
x29_2.m
x29_3.h
x29_3.m
x31_0.h
x31_0.m
x31_1.h
x31_1.m
x32_0.h
x32_0.m
x32_1.h
x32_1.m
x32_2.h
x32_2.m
x33_0.h
x33_0.m
x33_1.h
x33_1.m
x52_0.h
x52_0.m
x52_1.h
x52_1.m
x52_2.h
x52_2.m
x52_3.h
x52_3.m
x52_4.h
x52_4.m
x52_5.h
x52_5.m
x52_6.h
x52_6.m
x53_0.h
x53_0.m
x54_0.h
x54_0.m
x54_1.h
x54_1.m
x54_2.h
x54_2.m
x54_3.h
x54_3.m
x55_0.h
x55_0.m
x55_1.h
x55_1.m
x56_0.h
x56_0.m
x57_0.h
x57_0.m
x87_0.h
x87_0.m
x89_0.h
x89_0.m


End
\ total cons: 538    total vars: 471